Minimize
  x1 + x2 + x3 + x4 + x5 + x6 + x7 + x8 + x9 + x10 + x11 + x12 + x13 + x14
   + x15 + x16 + x17 + x18 + x19 + x20 + x21 + x22 + x23 + x24 + x25 + x26
   + x27 + x28 + x29 + x30 + x31 + x32 + x33 + x34 + x35 + x36 + x37 + x38
   + x39 + x40 + x41 + x42 + x43 + x44 + x45 + x46 + x47 + x48 + x49 + x50
Subject To
 R0: x1 + x3 + x6 + x9 + x10 + x11 + x13 + x14 + x16 + x20 + x21 + x22
   + x23 + x25 + x29 + x31 + x32 + x33 + x35 + x36 + x38 + x39 + x40 + x45
   + x47 + x49 + x50 >= 1
 R1: x4 + x7 + x15 + x18 + x19 + x28 + x30 + x34 + x37 + x44 + x46 + x48
   >= 1
 R2: x1 + x3 + x5 + x6 + x8 + x9 + x10 + x11 + x13 + x14 + x15 + x16 + x20
   + x21 + x22 + x23 + x24 + x25 + x29 + x31 + x32 + x33 + x35 + x36 + x38
   + x39 + x40 + x45 + x47 + x49 + x50 >= 1
 R3: x4 + x7 + x18 + x19 + x28 + x30 + x34 + x37 + x44 + x46 + x48 >= 1
 R4: x3 + x6 + x10 + x11 + x13 + x14 + x20 + x21 + x22 + x23 + x32 + x33
   + x35 + x36 + x38 + x47 + x49 + x50 >= 1
 R5: x3 + x6 + x11 + x20 + x22 + x23 + x33 + x35 + x38 + x47 + x49 + x50
   >= 1
 R6: x1 + x8 + x10 + x13 + x14 + x16 + x21 + x25 + x29 + x32 + x36 + x39
   + x40 + x45 >= 1
 R7: x4 + x7 + x18 + x19 + x28 + x30 + x34 + x37 + x44 + x46 + x48 >= 1
 R8: x3 + x6 + x10 + x11 + x13 + x14 + x20 + x21 + x22 + x23 + x25 + x32
   + x33 + x35 + x36 + x38 + x47 + x49 + x50 >= 1
 R9: x4 + x7 + x15 + x18 + x19 + x28 + x30 + x34 + x37 + x44 + x46 + x48
   >= 1
 R10: x4 + x7 + x18 + x19 + x28 + x30 + x34 + x37 + x44 + x46 + x48 >= 1
 R11: x2 + x5 + x12 + x17 + x24 + x26 + x27 + x41 + x42 + x43 + x48 >= 1
 R12: x3 + x6 + x10 + x11 + x13 + x14 + x20 + x21 + x22 + x23 + x32 + x33
   + x35 + x36 + x38 + x47 + x49 + x50 >= 1
 R13: x4 + x7 + x15 + x18 + x19 + x28 + x30 + x34 + x37 + x44 + x46 + x48
   >= 1
 R14: x4 + x7 + x15 + x18 + x19 + x28 + x30 + x34 + x37 + x44 + x46 + x48
   >= 1
 R15: x1 + x3 + x6 + x9 + x10 + x11 + x13 + x14 + x16 + x20 + x21 + x22
   + x23 + x25 + x29 + x31 + x32 + x33 + x35 + x36 + x38 + x39 + x40 + x45
   + x47 + x49 + x50 >= 1
 R16: x2 + x5 + x12 + x17 + x24 + x26 + x27 + x41 + x42 + x43 >= 1
 R17: x2 + x12 + x17 + x24 + x26 + x27 + x41 + x43 + x48 >= 1
 R18: x4 + x7 + x15 + x18 + x19 + x28 + x30 + x34 + x37 + x44 + x46 + x48
   >= 1
 R19: x5 + x9 + x10 + x12 + x13 + x14 + x15 + x21 + x24 + x26 + x27 + x31
   + x32 + x36 + x40 + x41 + x42 + x48 >= 1
 R20: x3 + x6 + x10 + x11 + x13 + x14 + x20 + x21 + x22 + x23 + x32 + x33
   + x35 + x36 + x38 + x47 + x49 + x50 >= 1
 R21: x3 + x6 + x10 + x11 + x13 + x14 + x20 + x21 + x22 + x23 + x32 + x33
   + x35 + x36 + x38 + x47 + x49 + x50 >= 1
 R22: x3 + x6 + x10 + x11 + x13 + x14 + x20 + x22 + x23 + x32 + x33 + x35
   + x36 + x38 + x47 + x49 + x50 >= 1
 R23: x1 + x3 + x6 + x9 + x10 + x11 + x13 + x14 + x16 + x20 + x21 + x22
   + x23 + x25 + x29 + x31 + x32 + x33 + x35 + x36 + x38 + x39 + x40 + x45
   + x47 + x49 + x50 >= 1
 R24: x1 + x3 + x5 + x6 + x8 + x9 + x10 + x11 + x13 + x14 + x15 + x16 + x20
   + x21 + x22 + x23 + x25 + x29 + x31 + x32 + x33 + x35 + x36 + x38 + x39
   + x40 + x45 + x47 + x49 + x50 >= 1
 R25: x1 + x3 + x5 + x8 + x9 + x10 + x11 + x13 + x14 + x15 + x16 + x21
   + x22 + x23 + x24 + x25 + x29 + x31 + x32 + x36 + x39 + x40 + x45 + x47
   + x50 >= 1
 R26: x2 + x17 + x26 + x27 + x41 + x43 >= 1
 R27: x4 + x7 + x15 + x18 + x19 + x28 + x30 + x34 + x37 + x42 + x43 + x44
   + x46 + x48 >= 1
 R28: x3 + x6 + x10 + x11 + x13 + x14 + x20 + x21 + x22 + x23 + x25 + x32
   + x33 + x35 + x36 + x38 + x47 + x49 + x50 >= 1
 R29: x3 + x6 + x10 + x11 + x13 + x14 + x20 + x21 + x22 + x23 + x25 + x32
   + x33 + x35 + x36 + x38 + x40 + x47 + x49 + x50 >= 1
 R30: x15 + x18 + x34 >= 1
 R31: x4 + x7 + x15 + x18 + x19 + x28 + x30 + x34 + x37 + x44 + x46 + x48
   >= 1
 R32: x4 + x7 + x15 + x18 + x19 + x28 + x30 + x34 + x37 + x42 + x43 + x44
   + x46 + x48 >= 1
 R33: x1 + x8 + x10 + x13 + x14 + x16 + x21 + x25 + x29 + x32 + x36 + x39
   + x40 + x45 >= 1
 R34: x1 + x3 + x5 + x8 + x9 + x10 + x11 + x13 + x14 + x15 + x16 + x21
   + x22 + x23 + x24 + x25 + x26 + x29 + x31 + x32 + x36 + x39 + x40 + x42
   + x45 + x47 + x50 >= 1
 R35: x1 + x3 + x5 + x9 + x10 + x11 + x13 + x14 + x15 + x16 + x21 + x22
   + x24 + x25 + x26 + x29 + x31 + x32 + x36 + x39 + x40 + x42 + x45 + x47
   >= 1
 R36: x4 + x7 + x15 + x18 + x19 + x28 + x30 + x34 + x37 + x44 + x46 + x48
   >= 1
 R37: x4 + x7 + x15 + x18 + x19 + x24 + x26 + x27 + x28 + x30 + x34 + x37
   + x41 + x42 + x43 + x44 + x46 + x48 >= 1
 R38: x2 + x17 + x24 + x26 + x27 + x41 + x43 >= 1
 R39: x6 + x11 + x20 + x22 + x23 + x33 + x35 + x38 + x47 + x49 + x50 >= 1
 R40: x3 + x6 + x11 + x13 + x20 + x22 + x23 + x32 + x33 + x35 + x38 + x47
   + x49 + x50 >= 1
 R41: x4 + x7 + x18 + x19 + x28 + x30 + x34 + x37 + x44 + x46 + x48 >= 1
 R42: x1 + x3 + x5 + x6 + x8 + x9 + x10 + x11 + x13 + x14 + x15 + x16 + x20
   + x21 + x22 + x23 + x24 + x25 + x29 + x31 + x32 + x33 + x35 + x36 + x38
   + x39 + x40 + x45 + x47 + x49 + x50 >= 1
 R43: x4 + x7 + x18 + x19 + x28 + x30 + x34 + x37 + x44 + x46 + x48 >= 1
 R44: x4 + x7 + x18 + x19 + x28 + x30 + x34 + x37 + x44 + x46 + x48 >= 1
 R45: x1 + x3 + x5 + x9 + x10 + x11 + x12 + x13 + x14 + x15 + x16 + x21
   + x22 + x24 + x25 + x26 + x31 + x32 + x36 + x39 + x40 + x41 + x42 + x45
   + x47 >= 1
 R46: x2 + x5 + x9 + x12 + x17 + x24 + x26 + x27 + x31 + x40 + x41 + x42
   + x43 + x48 >= 1
 R47: x5 + x9 + x10 + x13 + x14 + x15 + x21 + x24 + x25 + x26 + x31 + x32
   + x36 + x39 + x40 + x41 + x42 >= 1
 R48: x1 + x3 + x5 + x8 + x9 + x10 + x11 + x13 + x14 + x15 + x16 + x20
   + x21 + x22 + x23 + x24 + x25 + x29 + x31 + x32 + x36 + x39 + x40 + x42
   + x45 + x47 + x50 >= 1
 R49: x5 + x9 + x12 + x15 + x17 + x24 + x26 + x27 + x31 + x36 + x40 + x41
   + x42 + x43 + x48 >= 1
 R50: x2 + x17 + x26 + x27 >= 1
 R51: x2 + x4 + x7 + x17 + x18 + x19 + x26 + x27 + x28 + x30 + x34 + x37
   + x41 + x43 + x44 + x46 + x48 >= 1
 R52: x3 + x6 + x10 + x11 + x13 + x14 + x20 + x22 + x23 + x32 + x33 + x35
   + x38 + x47 + x49 + x50 >= 1
 R53: x2 + x5 + x9 + x12 + x17 + x24 + x26 + x27 + x31 + x40 + x41 + x42
   + x43 + x48 >= 1
 R54: x1 + x3 + x8 + x10 + x13 + x14 + x16 + x21 + x25 + x29 + x32 + x36
   + x39 + x40 + x45 >= 1
 R55: x4 + x7 + x17 + x19 + x26 + x27 + x28 + x30 + x34 + x37 + x43 + x44
   + x46 + x48 >= 1
 R56: x5 + x9 + x15 + x18 + x31 + x34 + x40 + x48 >= 1
 R57: x1 + x8 + x10 + x13 + x14 + x16 + x21 + x25 + x29 + x32 + x36 + x39
   + x40 + x45 >= 1
 R58: x4 + x7 + x15 + x18 + x19 + x28 + x30 + x34 + x37 + x44 + x46 + x48
   >= 1
 R59: x1 + x3 + x6 + x8 + x9 + x10 + x11 + x13 + x14 + x16 + x20 + x21
   + x22 + x23 + x25 + x29 + x31 + x32 + x33 + x35 + x36 + x38 + x39 + x40
   + x45 + x47 + x49 + x50 >= 1
 R60: x15 + x18 + x34 >= 1
 R61: x1 + x8 + x10 + x13 + x14 + x16 + x21 + x25 + x29 + x32 + x36 + x39
   + x40 + x45 >= 1
 R62: x1 + x3 + x8 + x9 + x10 + x11 + x13 + x14 + x16 + x21 + x22 + x25
   + x29 + x31 + x32 + x36 + x39 + x40 + x45 + x47 >= 1
 R63: x4 + x7 + x15 + x18 + x19 + x28 + x30 + x34 + x37 + x42 + x43 + x44
   + x46 + x48 >= 1
 R64: x2 + x17 + x26 + x27 + x41 + x43 >= 1
 R65: x4 + x15 + x18 + x30 + x34 + x46 + x48 >= 1
 R66: x5 + x9 + x10 + x12 + x13 + x14 + x15 + x21 + x24 + x25 + x26 + x27
   + x31 + x32 + x36 + x40 + x41 + x42 + x48 >= 1
 R67: x5 + x9 + x12 + x17 + x24 + x26 + x27 + x31 + x34 + x40 + x41 + x42
   + x43 + x48 >= 1
 R68: x3 + x6 + x10 + x11 + x13 + x14 + x20 + x21 + x22 + x23 + x32 + x33
   + x35 + x36 + x38 + x47 + x49 + x50 >= 1
 R69: x4 + x7 + x18 + x19 + x28 + x30 + x34 + x37 + x44 + x46 + x48 >= 1
 R70: x4 + x7 + x15 + x18 + x19 + x28 + x30 + x34 + x37 + x42 + x43 + x44
   + x46 + x48 >= 1
 R71: x2 + x17 + x26 + x27 + x41 + x43 >= 1
 R72: x3 + x6 + x11 + x20 + x22 + x23 + x33 + x35 + x38 + x47 + x49 + x50
   >= 1
 R73: x15 + x18 + x31 + x34 + x48 >= 1
 R74: x4 + x7 + x18 + x19 + x28 + x30 + x34 + x37 + x44 + x46 + x48 >= 1
 R75: x2 + x17 + x26 + x27 + x41 + x43 >= 1
 R76: x3 + x6 + x10 + x11 + x13 + x14 + x20 + x21 + x22 + x23 + x25 + x32
   + x33 + x35 + x36 + x38 + x47 + x49 + x50 >= 1
 R77: x3 + x6 + x10 + x11 + x13 + x14 + x20 + x22 + x23 + x32 + x33 + x35
   + x38 + x47 + x49 + x50 >= 1
 R78: x1 + x3 + x6 + x9 + x10 + x11 + x13 + x14 + x16 + x20 + x21 + x22
   + x23 + x25 + x29 + x31 + x32 + x33 + x35 + x36 + x38 + x39 + x40 + x45
   + x47 + x49 + x50 >= 1
 R79: x1 + x3 + x5 + x8 + x9 + x10 + x11 + x13 + x14 + x15 + x16 + x21
   + x22 + x24 + x25 + x29 + x31 + x32 + x36 + x39 + x40 + x42 + x45 + x47
   + x50 >= 1
 R80: x5 + x9 + x10 + x14 + x15 + x18 + x21 + x24 + x26 + x31 + x34 + x36
   + x40 + x41 + x42 + x48 >= 1
 R81: x5 + x9 + x12 + x17 + x24 + x26 + x27 + x31 + x40 + x41 + x42 + x43
   + x48 >= 1
 R82: x1 + x3 + x8 + x10 + x13 + x14 + x16 + x21 + x25 + x29 + x32 + x36
   + x39 + x40 + x45 >= 1
 R83: x5 + x9 + x15 + x18 + x31 + x34 + x36 + x40 + x42 + x48 >= 1
 R84: x4 + x7 + x18 + x19 + x28 + x30 + x34 + x37 + x44 + x46 + x48 >= 1
 R85: x4 + x7 + x15 + x18 + x19 + x28 + x30 + x34 + x37 + x44 + x46 + x48
   >= 1
 R86: x5 + x9 + x12 + x15 + x17 + x24 + x26 + x27 + x31 + x36 + x40 + x41
   + x42 + x43 + x48 >= 1
 R87: x3 + x6 + x9 + x10 + x11 + x13 + x14 + x16 + x20 + x21 + x22 + x23
   + x25 + x29 + x31 + x32 + x33 + x35 + x36 + x38 + x39 + x40 + x45 + x47
   + x49 + x50 >= 1
 R88: x3 + x6 + x11 + x20 + x22 + x23 + x33 + x35 + x38 + x47 + x49 + x50
   >= 1
 R89: x1 + x3 + x8 + x10 + x13 + x14 + x16 + x21 + x25 + x29 + x31 + x32
   + x36 + x39 + x40 + x45 >= 1
 R90: x2 + x12 + x17 + x24 + x26 + x27 + x41 + x43 + x48 >= 1
 R91: x1 + x3 + x5 + x9 + x10 + x11 + x13 + x14 + x15 + x16 + x21 + x22
   + x24 + x25 + x26 + x29 + x31 + x32 + x36 + x39 + x40 + x41 + x42 + x45
   + x47 + x50 >= 1
 R92: x4 + x7 + x18 + x19 + x28 + x30 + x34 + x37 + x44 + x46 + x48 >= 1
 R93: x3 + x6 + x10 + x11 + x13 + x14 + x20 + x21 + x22 + x23 + x32 + x33
   + x35 + x36 + x38 + x47 + x49 + x50 >= 1
 R94: x4 + x7 + x18 + x19 + x28 + x30 + x34 + x37 + x44 + x46 + x48 >= 1
 R95: x1 + x3 + x8 + x9 + x10 + x11 + x13 + x14 + x16 + x21 + x22 + x25
   + x29 + x31 + x32 + x36 + x39 + x40 + x45 + x47 + x50 >= 1
 R96: x4 + x7 + x18 + x19 + x28 + x30 + x34 + x37 + x44 + x46 + x48 >= 1
 R97: x4 + x7 + x18 + x19 + x28 + x30 + x34 + x37 + x44 + x46 + x48 >= 1
 R98: x1 + x3 + x5 + x6 + x8 + x9 + x10 + x11 + x13 + x14 + x15 + x16 + x20
   + x21 + x22 + x23 + x24 + x25 + x29 + x31 + x32 + x33 + x35 + x36 + x38
   + x39 + x40 + x45 + x47 + x49 + x50 >= 1
 R99: x3 + x6 + x10 + x11 + x13 + x14 + x20 + x21 + x22 + x23 + x25 + x32
   + x33 + x35 + x36 + x38 + x40 + x47 + x49 + x50 >= 1
Bounds
Binaries
 x1 x2 x3 x4 x5 x6 x7 x8 x9 x10 x11 x12 x13 x14 x15 x16 x17 x18 x19 x20 x21
 x22 x23 x24 x25 x26 x27 x28 x29 x30 x31 x32 x33 x34 x35 x36 x37 x38 x39
 x40 x41 x42 x43 x44 x45 x46 x47 x48 x49 x50
End
